out/bwp_7_13_1_lp.out
14
3 -0    3 0
0 10    0 10
4 -0    6 2
0 5    2 7
4 5    6 7
1 8    3 10
4 8    6 10
4 11    6 13
-0 2    3 4
-0 0    2 1
4 3    6 4
-0 11    1 13
2 11    3 13
